job_count = 20 ;
duration = [|28, 4, 12, 1|33, 24, 13, 3|31, 4, 9, 4|13, 17, 11, 2|26, 25, 2, 4|27, 22, 10, 5|12, 24, 11, 2|36, 15, 13, 9|14, 18, 4, 3|9, 17, 10, 7|11, 27, 8, 1|7, 6, 12, 5|34, 13, 7, 3|6, 9, 15, 3|33, 29, 11, 5|16, 11, 5, 7|5, 7, 4, 6|12, 10, 8, 3|19, 29, 18, 5|23, 7, 15, 1|] ;
machine_count = 4 ;
cost = [|12, 22, 42, 61|19, 20, 58, 67|15, 27, 59, 66|17, 30, 40, 72|17, 31, 38, 42|15, 24, 51, 55|13, 35, 41, 46|17, 36, 41, 74|11, 38, 59, 54|19, 28, 34, 61|17, 39, 47, 55|10, 36, 43, 52|16, 25, 44, 62|14, 29, 44, 55|10, 31, 46, 62|13, 34, 50, 45|10, 34, 43, 47|12, 20, 39, 57|19, 35, 45, 64|14, 21, 34, 71|] ;
deadline = [42, 42, 42, 42, 42, 42, 42, 42, 42, 42, 42, 42, 42, 42, 42, 42, 42, 42, 42, 42] ;
release = [0, 0, 0, 0, 0, 0, 0, 0, 0, 0, 0, 0, 0, 0, 0, 0, 0, 0, 0, 0] ;
resource = [|1, 1, 1, 1|5, 5, 5, 5|9, 9, 9, 9|3, 3, 3, 3|2, 2, 2, 2|9, 9, 9, 9|3, 3, 3, 3|8, 8, 8, 8|2, 2, 2, 2|5, 5, 5, 5|9, 9, 9, 9|4, 4, 4, 4|4, 4, 4, 4|1, 1, 1, 1|2, 2, 2, 2|3, 3, 3, 3|7, 7, 7, 7|9, 9, 9, 9|1, 1, 1, 1|6, 6, 6, 6|] ;
capacities = [10, 10, 10, 10] ;
